11 9 3.02 2 1 2 8 8198 4102
0 1 1 1 1 2 3 1 2
1 80
2 80
1 27
1 230
2 1370
1 1 0 550
2 2 0 600
3 2 0 530
4 2 0 540
5 2 0 500
6 2 0 570
7 2 0 560
8 2 0 510
0 1 1 150 10 1 3 5 9 1 3 2 5 3 10 1 4 2 3 4 15 1 1 2 4 1 3 9 15 1 5 2 2 4 5 1 2 2 1 6 11 1 2 2 3 1 2 8 12 1 5 2 1 4 12 1 4 2 4 1 3 3 20 1 3 2 2 1 8 1 2 2 5 2 19 1 1 2 5 1 3 2 8 1 3 2 4 1 17 1 2 2 2 3 6 1 3 2 4 1 3 1 17 1 2 2 1 2 12 1 3 2 3 3 15 1 1 2 1 1 2 2 8 1 2 2 5 1 16 1 4 2 5 1 3 1 9 1 2 2 2 3 20 1 4 2 5 2 18 1 5 2 2 1 4 1 16 1 1 2 1 2 17 1 2 2 2 3 19 1 5 2 1 4 16 1 4 2 2 1 3 1 6 1 4 2 3 2 13 1 4 2 1 3 20 1 1 2 2 
0 1 1 200 12 1 2 3 16 1 3 2 5 5 6 1 2 2 2 1 2 5 6 1 2 2 4 2 18 1 2 2 5 1 3 2 14 1 5 2 5 6 15 1 1 2 4 5 16 1 5 2 5 1 4 6 16 1 1 2 1 3 20 1 2 2 1 4 11 1 2 2 5 2 18 1 1 2 4 1 2 2 14 1 3 2 5 3 11 1 2 2 3 1 4 2 14 1 5 2 5 5 10 1 2 2 3 4 10 1 3 2 1 1 18 1 5 2 5 1 3 6 13 1 4 2 3 3 12 1 4 2 3 7 14 1 3 2 5 1 4 2 17 1 3 2 2 3 17 1 4 2 3 1 8 1 1 2 1 5 9 1 5 2 3 1 4 2 7 1 3 2 5 5 18 1 1 2 5 3 15 1 2 2 1 6 14 1 3 2 1 1 3 3 20 1 3 2 4 4 14 1 1 2 1 1 10 1 4 2 4 1 2 4 10 1 3 2 2 3 14 1 5 2 5 1 2 1 9 1 4 2 4 2 12 1 5 2 2 
0 1 1 200 9 1 4 3 13 1 2 2 2 4 15 1 1 2 5 7 12 1 1 2 4 2 18 1 3 2 5 1 4 2 15 1 1 2 1 4 6 1 4 2 5 7 13 1 1 2 5 3 8 1 2 2 4 1 4 3 12 1 5 2 2 1 15 1 3 2 4 4 6 1 3 2 3 5 14 1 4 2 1 1 2 2 17 1 2 2 4 1 13 1 3 2 1 1 3 1 7 1 5 2 4 2 10 1 3 2 1 3 10 1 3 2 4 1 2 1 17 1 2 2 2 2 11 1 5 2 1 1 4 2 14 1 2 2 4 7 14 1 3 2 2 3 16 1 3 2 4 1 15 1 1 2 2 1 2 5 16 1 4 2 5 6 20 1 5 2 3 1 4 5 8 1 4 2 1 4 14 1 5 2 1 8 11 1 3 2 3 2 15 1 1 2 3 
1 1 230 7 2 180 3 120 4 220 5 160 6 200 7 230 8 200 8 1 2 4 14 1 3 2 1 2 14 1 5 2 2 1 4 3 18 1 2 2 2 9 7 1 3 2 5 2 16 1 2 2 1 1 7 1 4 2 5 1 3 5 19 1 5 2 4 2 10 1 2 2 5 6 20 1 2 2 5 1 2 2 14 1 3 2 2 3 6 1 2 2 1 1 4 3 6 1 5 2 3 2 14 1 1 2 1 6 9 1 3 2 5 1 15 1 5 2 3 1 3 1 9 1 5 2 3 5 13 1 1 2 4 6 11 1 5 2 2 1 4 1 17 1 5 2 4 2 9 1 2 2 3 3 13 1 1 2 4 4 18 1 3 2 3 1 3 3 17 1 5 2 4 4 17 1 3 2 1 5 10 1 3 2 1 
1 1 200 7 2 210 3 190 4 160 5 150 6 150 7 150 8 120 9 1 3 3 12 1 4 2 4 1 10 1 1 2 3 4 19 1 2 2 3 1 2 1 12 1 3 2 4 4 13 1 1 2 4 1 2 1 8 1 2 2 4 3 16 1 2 2 4 1 2 2 19 1 4 2 5 4 11 1 5 2 5 1 4 2 16 1 3 2 4 7 6 1 3 2 4 6 5 1 5 2 3 4 5 1 4 2 5 1 2 1 18 1 5 2 1 2 5 1 2 2 3 1 2 2 9 1 3 2 5 3 8 1 5 2 1 1 3 2 12 1 5 2 4 5 12 1 5 2 3 3 20 1 1 2 5 1 3 3 13 1 1 2 5 2 9 1 4 2 5 4 13 1 2 2 2 
1 1 120 7 2 210 3 220 4 160 5 190 6 220 7 180 8 190 12 1 2 2 14 1 4 2 1 5 9 1 2 2 4 1 4 2 19 1 2 2 5 3 11 1 2 2 1 1 7 1 4 2 3 4 7 1 3 2 3 1 3 4 7 1 5 2 4 1 5 1 4 2 2 2 19 1 5 2 3 1 2 2 17 1 2 2 4 1 19 1 1 2 1 1 4 1 11 1 4 2 5 2 5 1 3 2 4 3 17 1 4 2 1 4 10 1 5 2 2 1 4 1 10 1 3 2 4 2 18 1 4 2 2 4 8 1 2 2 5 3 16 1 3 2 5 1 4 6 16 1 1 2 4 2 8 1 2 2 2 5 6 1 2 2 2 1 9 1 5 2 4 1 2 2 18 1 5 2 3 7 12 1 1 2 5 1 3 4 7 1 4 2 5 3 17 1 4 2 3 7 8 1 1 2 2 1 3 3 15 1 2 2 2 4 16 1 1 2 3 5 20 1 2 2 5 1 4 4 15 1 1 2 1 3 11 1 5 2 2 2 6 1 2 2 5 5 15 1 3 2 3 1 4 3 17 1 1 2 4 4 7 1 4 2 4 1 10 1 2 2 5 6 5 1 3 2 5 
7 2 90 3 60 4 60 5 50 6 120 7 100 8 90 0 9 1 4 2 8 1 4 2 2 4 20 1 3 2 4 7 8 1 2 2 2 3 19 1 1 2 2 1 4 2 18 1 5 2 1 1 6 1 3 2 1 3 6 1 4 2 2 4 17 1 3 2 5 1 2 2 20 1 5 2 3 8 12 1 5 2 1 1 2 4 7 1 5 2 3 1 10 1 3 2 5 1 4 4 14 1 3 2 5 3 14 1 1 2 5 2 20 1 2 2 1 1 6 1 3 2 2 1 4 6 6 1 2 2 5 1 18 1 2 2 5 2 16 1 2 2 2 7 14 1 5 2 2 1 3 2 11 1 1 2 1 3 6 1 4 2 4 1 16 1 1 2 5 1 3 2 17 1 1 2 1 4 14 1 3 2 1 1 6 1 3 2 3 1 2 1 7 1 2 2 4 5 16 1 5 2 2 
7 2 90 3 120 4 100 5 60 6 70 7 90 8 110 0 12 1 3 6 14 1 1 2 4 7 18 1 5 2 1 2 16 1 1 2 1 1 4 3 14 1 5 2 1 9 7 1 2 2 4 6 12 1 3 2 2 5 5 1 2 2 4 1 2 5 16 1 2 2 2 3 10 1 1 2 1 1 4 2 10 1 5 2 4 1 10 1 5 2 2 4 7 1 1 2 3 3 14 1 1 2 3 1 4 4 15 1 1 2 4 3 6 1 1 2 4 1 8 1 1 2 1 5 12 1 5 2 3 1 4 2 8 1 5 2 2 7 6 1 5 2 2 1 13 1 5 2 4 6 15 1 1 2 4 1 4 5 18 1 1 2 1 2 19 1 4 2 2 4 18 1 3 2 1 1 15 1 2 2 2 1 2 3 18 1 5 2 1 2 8 1 2 2 3 1 4 1 11 1 1 2 2 2 15 1 1 2 3 7 20 1 2 2 1 3 10 1 1 2 5 1 2 2 12 1 2 2 3 4 20 1 4 2 3 1 3 3 19 1 5 2 1 2 8 1 5 2 5 1 14 1 2 2 5 1 2 7 9 1 1 2 1 1 14 1 3 2 1 
7 2 150 3 110 4 140 5 160 6 140 7 130 8 110 0 9 1 3 6 16 1 1 2 3 3 12 1 2 2 3 8 6 1 2 2 5 1 3 4 19 1 5 2 5 1 5 1 1 2 1 2 8 1 2 2 4 1 4 1 11 1 3 2 1 2 20 1 2 2 4 3 18 1 2 2 1 4 16 1 1 2 1 1 3 5 7 1 3 2 2 2 17 1 2 2 1 4 18 1 4 2 1 1 4 3 17 1 2 2 5 7 17 1 2 2 1 4 18 1 1 2 1 5 10 1 2 2 3 1 2 2 15 1 1 2 4 1 8 1 5 2 5 1 3 3 5 1 2 2 5 4 6 1 3 2 5 2 8 1 5 2 3 1 2 6 9 1 5 2 5 4 14 1 5 2 3 1 4 6 8 1 5 2 4 1 8 1 2 2 2 2 13 1 4 2 1 3 19 1 1 2 3 
7 2 120 3 110 4 170 5 80 6 110 7 120 8 120 0 10 1 2 2 16 1 1 2 2 4 7 1 1 2 2 1 2 2 8 1 3 2 5 5 11 1 5 2 4 1 2 1 20 1 4 2 4 2 17 1 5 2 5 1 4 4 12 1 4 2 1 6 16 1 4 2 3 3 9 1 4 2 2 1 5 1 4 2 1 1 2 3 20 1 4 2 1 7 17 1 3 2 2 1 3 2 8 1 1 2 5 3 5 1 2 2 4 4 9 1 5 2 3 1 4 3 16 1 3 2 1 4 15 1 3 2 3 5 15 1 2 2 2 6 7 1 3 2 1 1 4 2 13 1 1 2 4 3 8 1 1 2 2 1 14 1 5 2 3 4 19 1 4 2 4 1 4 3 10 1 4 2 1 4 12 1 2 2 5 2 12 1 2 2 5 5 11 1 5 2 1 1 2 3 13 1 5 2 1 2 5 1 5 2 4 
7 2 150 3 130 4 70 5 150 6 130 7 120 8 80 0 8 1 2 3 5 1 1 2 3 2 5 1 1 2 4 1 3 3 15 1 3 2 5 1 12 1 1 2 4 2 14 1 4 2 3 1 2 3 10 1 1 2 3 4 7 1 1 2 2 1 2 1 5 1 4 2 4 2 17 1 3 2 3 1 3 3 12 1 3 2 4 4 5 1 2 2 2 1 11 1 1 2 2 1 4 2 13 1 2 2 3 6 18 1 5 2 5 3 16 1 4 2 1 4 19 1 1 2 3 1 4 3 10 1 4 2 3 2 19 1 5 2 4 4 17 1 4 2 2 1 10 1 2 2 4 1 3 3 16 1 2 2 2 4 9 1 5 2 5 6 7 1 2 2 5 
